n = 5;
r = 1;

/*

    2
    |
5 - 1 - 3
    |
    4

*/

graph = [| 0, 1, 1, 1, 1         
         | 1, 0, 0, 0, 0         
         | 1, 0, 0, 0, 0         
         | 1, 0, 0, 0, 0         
         | 1, 0, 0, 0, 0 |];
